data;


param d:= 100;
param r:=5;
param p:=0.700000;
param M:=1000;
param U:=
         1         1        1.562115e-01
         2         1        6.659845e-01
         3         1       -1.654495e+00
         4         1       -5.981962e-01
         5         1       -1.521038e-01
         6         1        1.546727e-01
         7         1        6.054594e-01
         8         1        1.705373e+00
         9         1       -1.431180e+00
        10         1       -1.340725e+00
        11         1       -1.009818e+00
        12         1        8.496864e-01
        13         1       -2.056937e-01
        14         1        3.766729e-02
        15         1       -2.671974e-01
        16         1       -5.176337e-02
        17         1        2.049776e+00
        18         1       -6.570218e-01
        19         1       -7.580034e-01
        20         1       -1.605308e+00
        21         1        1.520833e+00
        22         1        7.017754e-01
        23         1       -2.135309e+00
        24         1       -7.936127e-02
        25         1        5.513791e-01
        26         1       -7.402964e-01
        27         1        3.869510e-01
        28         1        1.330176e+00
        29         1        4.172352e-01
        30         1        1.649637e+00
        31         1       -5.314959e-01
        32         1        1.180831e+00
        33         1       -1.456513e+00
        34         1       -9.707710e-01
        35         1        2.832622e-02
        36         1       -8.080156e-01
        37         1       -1.292936e-02
        38         1        1.440345e+00
        39         1        7.521555e-01
        40         1       -6.515060e-01
        41         1       -1.536951e+00
        42         1       -1.979126e-01
        43         1       -1.422023e+00
        44         1        8.642308e-01
        45         1       -1.482011e-01
        46         1       -1.808755e+00
        47         1       -9.877618e-01
        48         1       -6.522267e-01
        49         1        1.746224e+00
        50         1       -9.024543e-01
        51         1        4.299856e-01
        52         1        7.499691e-01
        53         1        4.774384e-02
        54         1        5.327169e-01
        55         1        2.058915e-01
        56         1       -9.318513e-01
        57         1        1.264276e+00
        58         1       -1.061393e-01
        59         1        1.435371e-01
        60         1       -5.240449e-01
        61         1       -5.977840e-01
        62         1        1.778145e+00
        63         1       -2.111397e+00
        64         1        1.033309e-01
        65         1       -3.520911e-02
        66         1        2.278486e-01
        67         1        6.751530e-01
        68         1        2.280268e-01
        69         1       -3.454461e-01
        70         1        2.141701e+00
        71         1       -9.058217e-01
        72         1        2.377055e-01
        73         1       -4.402178e-02
        74         1        1.600633e-01
        75         1       -6.033149e-02
        76         1        1.056512e+00
        77         1        6.313854e-01
        78         1       -2.511159e-01
        79         1       -1.009756e+00
        80         1        1.379368e+00
        81         1        1.383579e+00
        82         1        5.966842e-02
        83         1        7.054855e-01
        84         1        1.088841e+00
        85         1        7.239969e-01
        86         1        1.200332e+00
        87         1       -1.366572e+00
        88         1        3.104066e-01
        89         1        7.854849e-01
        90         1        1.659317e+00
        91         1       -5.135880e-02
        92         1       -1.074029e+00
        93         1        2.300290e-01
        94         1       -1.620798e+00
        95         1        3.181680e-01
        96         1        1.355233e+00
        97         1       -2.065860e-01
        98         1       -2.427766e-02
        99         1        1.633885e-01
       100         1        4.733333e-01
         1         2        1.256166e+00
         2         2       -7.635152e-01
         3         2        9.211594e-01
         4         2       -3.835741e-01
         5         2       -1.450753e+00
         6         2       -3.185411e-02
         7         2       -7.818285e-01
         8         2        2.424302e+00
         9         2       -2.626380e-01
        10         2        7.344218e-01
        11         2       -3.191620e-01
        12         2       -1.823981e-01
        13         2        1.939058e-01
        14         2       -1.225676e-01
        15         2        9.595985e-02
        16         2       -1.435239e-01
        17         2       -7.848684e-02
        18         2        1.150036e+00
        19         2        5.239774e-01
        20         2       -9.642655e-01
        21         2        5.537080e-01
        22         2        4.856606e-02
        23         2        6.944897e-01
        24         2        1.161140e+00
        25         2       -5.399884e-01
        26         2       -9.842054e-01
        27         2       -1.125244e+00
        28         2        1.500337e+00
        29         2        4.609517e-02
        30         2       -1.935922e-02
        31         2       -1.316825e+00
        32         2       -1.722422e+00
        33         2       -1.236494e+00
        34         2       -4.221329e-01
        35         2       -2.460014e-01
        36         2       -2.318057e+00
        37         2        1.431944e+00
        38         2       -5.367120e-01
        39         2       -6.365809e-01
        40         2        1.650297e-02
        41         2        3.987257e-01
        42         2       -4.379051e-01
        43         2        2.817308e-01
        44         2       -4.260311e-01
        45         2       -1.403178e+00
        46         2        5.313718e-02
        47         2        7.647933e-01
        48         2        1.064904e+00
        49         2       -2.058596e+00
        50         2        5.735662e-01
        51         2        5.106321e-01
        52         2       -1.041359e+00
        53         2        3.716303e-01
        54         2        5.948987e-02
        55         2        1.051617e-01
        56         2       -1.437079e+00
        57         2       -9.901411e-01
        58         2        1.136968e+00
        59         2       -7.559280e-01
        60         2       -3.847182e-01
        61         2        5.761520e-01
        62         2        1.103557e-02
        63         2        3.453146e-01
        64         2       -4.749422e-01
        65         2       -6.363488e-01
        66         2       -1.303286e+00
        67         2       -5.239981e-01
        68         2       -1.320851e+00
        69         2       -3.945073e-01
        70         2       -1.141000e+00
        71         2        7.322888e-01
        72         2       -2.568979e+00
        73         2       -1.159293e+00
        74         2       -1.906838e+00
        75         2       -1.297424e+00
        76         2        8.335943e-01
        77         2       -6.528023e-01
        78         2        8.142557e-01
        79         2        5.899271e-01
        80         2       -5.430539e-01
        81         2        6.270417e-01
        82         2       -1.861858e+00
        83         2        4.906261e-01
        84         2        2.135092e-01
        85         2       -1.141353e+00
        86         2       -1.473781e-02
        87         2        3.703997e-01
        88         2        9.821835e-01
        89         2        1.854061e+00
        90         2        5.749847e-01
        91         2       -1.346304e+00
        92         2       -1.333862e+00
        93         2       -1.622657e+00
        94         2        7.381158e-01
        95         2       -4.923351e-01
        96         2        7.666586e-02
        97         2       -5.784689e-01
        98         2        8.261213e-01
        99         2       -7.584741e-01
       100         2       -7.897481e-01
         1         3       -1.785555e-01
         2         3        5.688278e-01
         3         3        2.569288e-01
         4         3       -9.937253e-01
         5         3        1.118800e+00
         6         3        1.469188e-01
         7         3        6.224782e-01
         8         3        2.953570e-02
         9         3        4.124540e-01
        10         3       -3.028793e-01
        11         3       -1.323380e+00
        12         3        7.648442e-01
        13         3       -2.378454e-01
        14         3        5.497823e-01
        15         3        8.990318e-01
        16         3        6.672845e-02
        17         3       -2.047984e-01
        18         3       -3.880334e-01
        19         3        3.526248e-01
        20         3       -4.749311e-01
        21         3       -5.995688e-01
        22         3       -9.322560e-01
        23         3        7.052210e-01
        24         3        3.326525e-01
        25         3       -8.601614e-01
        26         3        5.152975e-01
        27         3       -1.484433e+00
        28         3       -9.671866e-01
        29         3        3.478656e-01
        30         3        1.854330e+00
        31         3       -1.422837e+00
        32         3        9.134643e-01
        33         3        5.850181e-02
        34         3       -1.768910e+00
        35         3        4.458835e-01
        36         3        1.771443e+00
        37         3        2.090125e-01
        38         3       -8.276966e-01
        39         3        2.169072e-01
        40         3        6.367123e-01
        41         3        4.445531e-01
        42         3       -3.539987e-01
        43         3       -1.233532e+00
        44         3       -7.941453e-01
        45         3       -1.960239e+00
        46         3        2.281291e-01
        47         3       -1.322257e+00
        48         3       -2.181558e+00
        49         3        2.229063e+00
        50         3        1.262002e+00
        51         3        5.726678e-01
        52         3        6.806207e-01
        53         3        7.004045e-01
        54         3       -4.694179e-01
        55         3       -7.196724e-01
        56         3        7.285933e-01
        57         3       -2.161698e-01
        58         3       -7.929506e-01
        59         3       -1.162777e-01
        60         3        2.943765e-01
        61         3        9.528569e-01
        62         3       -3.130544e+00
        63         3       -1.228009e+00
        64         3       -9.647136e-02
        65         3       -7.561241e-01
        66         3        8.415887e-01
        67         3        9.876011e-01
        68         3       -1.101626e+00
        69         3        1.475262e+00
        70         3       -6.726572e-01
        71         3       -1.088471e+00
        72         3       -2.260624e+00
        73         3       -1.345286e+00
        74         3        5.655809e-01
        75         3        1.485103e+00
        76         3       -5.892589e-01
        77         3        1.848002e+00
        78         3        8.411703e-01
        79         3       -1.118872e+00
        80         3        6.811142e-01
        81         3        6.852313e-01
        82         3       -6.681016e-01
        83         3       -2.588248e+00
        84         3        2.454580e-01
        85         3       -2.682842e-01
        86         3        4.464852e-01
        87         3       -2.267825e+00
        88         3       -1.079660e+00
        89         3        3.577322e-01
        90         3       -5.870693e-01
        91         3        2.169769e-02
        92         3        3.925176e-01
        93         3       -3.997699e-01
        94         3        1.057597e+00
        95         3       -8.058922e-01
        96         3       -7.866848e-01
        97         3        2.045037e+00
        98         3       -7.510209e-02
        99         3        2.927761e-01
       100         3        7.148148e-01
         1         4        3.304075e-01
         2         4        1.085846e+00
         3         4       -9.722081e-01
         4         4       -1.019309e+00
         5         4        3.713194e-01
         6         4        7.788327e-01
         7         4        4.510609e-01
         8         4       -6.839657e-02
         9         4       -6.508334e-01
        10         4        6.645442e-01
        11         4        4.140517e-01
        12         4       -9.152893e-01
        13         4       -2.892692e-01
        14         4        1.611711e-01
        15         4       -1.671484e+00
        16         4        2.160644e+00
        17         4        1.482754e+00
        18         4        1.829802e+00
        19         4       -9.760263e-01
        20         4        6.249253e-01
        21         4       -1.379897e-01
        22         4        7.290053e-01
        23         4        1.145201e-01
        24         4        4.596632e-01
        25         4        1.023075e+00
        26         4       -6.028726e-01
        27         4        9.731090e-01
        28         4       -1.042533e+00
        29         4        6.107259e-01
        30         4        2.045161e-01
        31         4        1.095193e+00
        32         4        6.953842e-01
        33         4       -9.095408e-01
        34         4        3.203909e-01
        35         4       -2.824868e-01
        36         4        1.166959e+00
        37         4       -5.183564e-01
        38         4       -1.305329e+00
        39         4        2.734039e-01
        40         4       -5.183027e-01
        41         4        8.483809e-02
        42         4        9.410983e-01
        43         4        2.921994e-01
        44         4        9.682141e-01
        45         4        1.366780e+00
        46         4       -5.145628e-01
        47         4       -2.936930e-01
        48         4       -2.069602e-01
        49         4       -7.299676e-01
        50         4       -5.863648e-01
        51         4        7.741355e-01
        52         4       -1.058914e-01
        53         4        5.059393e-02
        54         4        8.815664e-01
        55         4        6.524103e-01
        56         4       -1.745527e+00
        57         4       -3.786057e-01
        58         4        5.755274e-01
        59         4       -9.290536e-01
        60         4       -6.403295e-02
        61         4       -1.245608e+00
        62         4        1.394250e-01
        63         4       -6.231271e-01
        64         4        1.801420e+00
        65         4       -9.194845e-01
        66         4       -5.724489e-01
        67         4       -3.253648e-01
        68         4       -1.512201e+00
        69         4       -9.898011e-01
        70         4        3.645074e-01
        71         4       -6.975303e-01
        72         4       -3.201406e-01
        73         4        8.681603e-02
        74         4        5.990842e-03
        75         4        1.165695e+00
        76         4       -2.538002e-01
        77         4        1.498397e-02
        78         4        6.265581e-01
        79         4        1.376993e+00
        80         4       -1.606411e-01
        81         4       -1.436427e+00
        82         4        3.618513e-01
        83         4       -2.853965e-01
        84         4        4.438187e-01
        85         4        7.984678e-01
        86         4        2.438183e-01
        87         4        3.769962e-01
        88         4       -4.137779e-01
        89         4       -3.607803e-01
        90         4       -3.513661e-01
        91         4       -2.687232e-01
        92         4       -1.039753e-02
        93         4       -6.767974e-01
        94         4       -3.669924e-01
        95         4        4.280306e-01
        96         4        1.068513e+00
        97         4       -1.691719e-01
        98         4        1.183043e+00
        99         4       -2.576620e+00
       100         4       -4.136224e-01
         1         5        7.843735e-01
         2         5       -1.449259e+00
         3         5       -9.467761e-01
         4         5        6.933452e-01
         5         5        5.326810e-01
         6         5        9.842130e-01
         7         5        1.168510e-01
         8         5       -9.361965e-01
         9         5        1.463025e-01
        10         5        1.700276e+00
        11         5        1.663076e+00
        12         5       -2.247752e-01
        13         5        1.248949e+00
        14         5       -5.793107e-01
        15         5       -1.345118e+00
        16         5       -3.188153e-01
        17         5        9.419651e-01
        18         5       -5.279944e-01
        19         5        2.018587e+00
        20         5       -5.805469e-01
        21         5       -3.126789e-01
        22         5        3.060191e-02
        23         5       -7.004218e-01
        24         5       -1.304323e-01
        25         5        5.240336e-01
        26         5       -8.068209e-01
        27         5       -1.902241e+00
        28         5        1.207898e+00
        29         5       -1.902905e-01
        30         5        3.312556e-01
        31         5       -1.161977e+00
        32         5        4.633434e-01
        33         5       -9.835763e-01
        34         5       -1.347104e+00
        35         5       -5.592196e-01
        36         5        1.122840e+00
        37         5       -4.362683e-01
        38         5        9.712824e-01
        39         5        9.947713e-01
        40         5        7.000403e-01
        41         5        4.721099e-02
        42         5       -1.760528e+00
        43         5        1.877754e-01
        44         5       -1.583128e-01
        45         5        2.695178e+00
        46         5       -1.497393e+00
        47         5        5.812839e-01
        48         5        5.749265e-01
        49         5       -3.100756e-01
        50         5        8.246134e-01
        51         5       -8.867511e-01
        52         5        7.569553e-01
        53         5        6.041978e-01
        54         5        9.054646e-01
        55         5       -1.327817e+00
        56         5        1.534094e-01
        57         5        1.093332e+00
        58         5       -1.416896e+00
        59         5        3.168677e-01
        60         5       -1.047916e+00
        61         5        5.662079e-01
        62         5        1.283845e+00
        63         5       -1.056373e+00
        64         5        1.124803e+00
        65         5       -3.165373e-01
        66         5       -1.293028e+00
        67         5        4.900678e-01
        68         5       -2.100907e-01
        69         5        1.208741e+00
        70         5        7.611638e-02
        71         5       -1.748559e-01
        72         5        1.067899e+00
        73         5       -1.249386e+00
        74         5        8.058300e-01
        75         5       -6.354013e-01
        76         5       -3.123694e-01
        77         5        1.341857e+00
        78         5        6.968007e-01
        79         5        6.055336e-01
        80         5       -9.088635e-01
        81         5        3.984311e-01
        82         5        1.205371e+00
        83         5        1.040228e+00
        84         5        2.598621e-01
        85         5        1.401092e+00
        86         5       -8.569302e-01
        87         5        2.441633e-01
        88         5        1.297394e+00
        89         5        2.123709e-01
        90         5        1.858913e+00
        91         5        3.947338e-01
        92         5        1.320071e+00
        93         5        7.319647e-01
        94         5       -1.267619e+00
        95         5        1.048508e-01
        96         5       -6.151721e-01
        97         5        1.102434e-01
        98         5        9.932176e-01
        99         5        4.030216e-01
       100         5        6.845816e-01
;

param theta:=
    1        1.046182e+00
    2       -5.488548e-01
    3        1.758042e+00
    4       -1.307138e+00
    5       -1.028036e+00
;
param X_true:=
    1       -2.078188e+00
    2        2.186364e+00
    3        4.593367e-01
    4       -1.542713e+00
    5        1.571040e+00
    6       -1.592260e+00
    7        1.447148e+00
    8        1.557312e+00
    9        7.231160e-02
   10       -4.954803e+00
   11       -5.458761e+00
   12        3.761151e+00
   13       -1.645612e+00
   14        1.458099e+00
   15        4.816021e+00
   16       -2.354574e+00
   17       -1.079066e+00
   18       -3.849751e+00
   19       -1.260048e+00
   20       -2.205190e+00
   21        7.349119e-01
   22       -1.915786e+00
   23       -8.049213e-01
   24       -6.022600e-01
   25       -2.515008e+00
   26        2.289095e+00
   27       -9.036935e-01
   28       -1.011245e+00
   29        4.200894e-01
   30        4.388561e+00
   31       -2.571716e+00
   32        2.401335e+00
   33        1.457774e+00
   34       -2.927653e+00
   35        1.892682e+00
   36        8.615218e-01
   37        6.940599e-01
   38        1.054046e+00
   39        1.375761e-01
   40        3.865417e-01
   41       -1.204659e+00
   42       -9.309180e-03
   43       -4.385909e+00
   44       -1.361007e+00
   45       -7.388397e+00
   46        6.915884e-01
   47       -3.991405e+00
   48       -5.422616e+00
   49        8.148461e+00
   50        8.784441e-01
   51        1.076065e+00
   52        1.912955e+00
   53        3.900476e-01
   54       -2.383768e+00
   55       -5.952784e-01
   56        3.218693e+00
   57        8.569745e-01
   58       -1.424785e+00
   59        1.249289e+00
   60        1.341430e+00
   61        1.779647e+00
   62       -5.151510e+00
   63       -2.656822e+00
   64       -3.311866e+00
   65        5.104346e-01
   66        4.510783e+00
   67        2.651665e+00
   68        1.219444e+00
   69        2.499878e+00
   70        1.129581e+00
   71       -2.171625e+00
   72       -2.994964e+00
   73       -6.039064e-01
   74        1.372094e+00
   75        2.389345e+00
   76        2.647182e-01
   77        2.868639e+00
   78       -7.661422e-01
   79       -5.769626e+00
   80        4.082880e+00
   81        3.775992e+00
   82       -1.802391e+00
   83       -4.777805e+00
   84        6.061851e-01
   85       -1.571866e+00
   86        2.611045e+00
   87       -6.363704e+00
   88       -2.905325e+00
   89        6.863222e-01
   90       -1.063475e+00
   91        6.687976e-01
   92       -1.044960e+00
   93        5.606241e-01
   94        1.541399e+00
   95       -1.480996e+00
   96       -7.715576e-01
   97        3.804427e+00
   98       -3.178316e+00
   99        4.055614e+00
  100        2.022211e+00
;
param X:=
    1        4.248831e-01
    2        1.225140e+00
    3       -9.984888e-01
    4        1.257241e+00
    5       -2.407311e-01
    6        1.123189e+00
    7       -2.284779e+00
    8        1.557312e+00
    9        1.302952e+00
   10        1.371306e+00
   11        3.404995e-01
   12        3.761151e+00
   13        1.649413e+00
   14        1.458099e+00
   15        1.799937e+00
   16        1.207302e+00
   17       -1.079066e+00
   18       -3.849751e+00
   19        1.933004e+00
   20       -2.205190e+00
   21        7.349119e-01
   22       -1.915786e+00
   23       -8.049213e-01
   24       -8.649502e-01
   25        1.732834e-01
   26       -4.361695e-01
   27        3.828186e-01
   28       -1.011245e+00
   29        4.200894e-01
   30        4.388561e+00
   31       -4.007535e-01
   32       -2.965358e+00
   33       -6.365244e-01
   34       -4.655258e-01
   35       -5.256225e-01
   36       -1.674829e+00
   37        4.866645e-01
   38        1.593287e+00
   39        1.878554e+00
   40        4.829323e-01
   41        6.708143e-01
   42        4.656950e-01
   43       -8.820890e-01
   44       -7.672501e-01
   45        1.882993e-01
   46       -2.280861e-01
   47       -3.991405e+00
   48       -5.422616e+00
   49        1.335189e+00
   50       -1.606024e-01
   51        1.644598e+00
   52        1.912955e+00
   53        3.627965e-01
   54       -2.832861e-01
   55       -5.924023e-01
   56        3.218693e+00
   57       -8.019175e-01
   58       -2.255496e-01
   59        1.249289e+00
   60        2.840021e-01
   61        1.779647e+00
   62       -1.750198e+00
   63        1.161866e+00
   64        3.125310e-01
   65       -1.190971e+00
   66        6.126126e-01
   67        2.651665e+00
   68        1.219444e+00
   69        2.499878e+00
   70        1.449509e-01
   71       -2.171625e+00
   72        3.756165e-01
   73       -6.039064e-01
   74        1.372094e+00
   75       -7.962579e-01
   76        7.842910e-01
   77        2.868639e+00
   78        9.774024e-02
   79       -1.262346e-01
   80       -8.045676e-01
   81       -6.382370e-01
   82       -1.802391e+00
   83        1.386911e-01
   84        6.983620e-01
   85       -6.575009e-01
   86        2.611045e+00
   87       -6.363704e+00
   88        3.787147e-01
   89        1.251819e+00
   90        1.330713e-01
   91        2.935028e-01
   92        6.412008e-01
   93       -1.998988e+00
   94       -7.419485e-01
   95        8.348881e-01
   96       -7.715576e-01
   97       -4.348021e-01
   98       -3.178316e+00
   99       -8.643560e-02
  100       -9.588565e-01
;
param outliervec:=
    1    1
    2    1
    3    1
    4    1
    5    1
    6    1
    7    1
    8    0
    9    1
   10    1
   11    1
   12    0
   13    1
   14    0
   15    1
   16    1
   17    0
   18    0
   19    1
   20    0
   21    0
   22    0
   23    0
   24    1
   25    1
   26    1
   27    1
   28    0
   29    0
   30    0
   31    1
   32    1
   33    1
   34    1
   35    1
   36    1
   37    1
   38    1
   39    1
   40    1
   41    1
   42    1
   43    1
   44    1
   45    1
   46    1
   47    0
   48    0
   49    1
   50    1
   51    1
   52    0
   53    1
   54    1
   55    1
   56    0
   57    1
   58    1
   59    0
   60    1
   61    0
   62    1
   63    1
   64    1
   65    1
   66    1
   67    0
   68    0
   69    0
   70    1
   71    0
   72    1
   73    0
   74    0
   75    1
   76    1
   77    0
   78    1
   79    1
   80    1
   81    1
   82    0
   83    1
   84    1
   85    1
   86    0
   87    0
   88    1
   89    1
   90    1
   91    1
   92    1
   93    1
   94    1
   95    1
   96    0
   97    1
   98    0
   99    1
  100    1
;